-1 -1 -1 -1 -1 -1 -1 -1 -1 -1 -1 -1 -1 -1 -1 -1 -1 -1 -1 -1 -1 0 -1 -1 -1 -1 -1 -1 -1 -1 -1 -1 -1 -1 -1 -1
-1 -1 -1 -1 -1 -1 -1 -1 -1 -1 -1 -1 -1 -1 -1 -1 -1 -1 -1 -1 -1 0 -1 -1 -1 0 -1 -1 -1 -1 -1 -1 -1 -1 -1 -1
-1 -1 -1 -1 -1 -1 -1 -1 0 -1 -1 -1 -1 -1 -1 -1 -1 -1 -1 -1 -1 0 -1 -1 -1 0 -1 -1 -1 -1 -1 -1 -1 -1 -1 -1
-1 -1 -1 -1 -1 -1 -1 -1 0 -1 -1 -1 -1 -1 -1 -1 -1 -1 -1 -1 -1 0 -1 -1 -1 0 -1 -1 -1 -1 -1 -1 -1 -1 0 -1
-1 -1 -1 -1 -1 -1 -1 -1 0 -1 -1 -1 -1 -1 -1 -1 -1 0 -1 -1 -1 0 -1 -1 -1 0 -1 -1 -1 -1 -1 -1 -1 -1 0 -1
-1 -1 -1 -1 -1 -1 -1 -1 0 -1 -1 -1 -1 -1 -1 -1 -1 0 -1 -1 1 0 -1 -1 -1 0 -1 -1 -1 -1 -1 -1 -1 -1 0 -1
-1 -1 -1 -1 -1 -1 -1 -1 0 -1 -1 -1 -1 -1 -1 -1 -1 0 -1 -1 1 0 -1 -1 -1 0 -1 -1 1 -1 -1 -1 -1 -1 0 -1
-1 -1 -1 -1 -1 -1 -1 -1 0 1 -1 -1 -1 -1 -1 -1 -1 0 -1 -1 1 0 -1 -1 -1 0 -1 -1 1 -1 -1 -1 -1 -1 0 -1
-1 -1 -1 -1 -1 -1 -1 -1 0 1 -1 -1 -1 -1 -1 -1 -1 0 -1 -1 1 0 -1 -1 -1 0 -1 -1 1 -1 -1 1 -1 -1 0 -1
-1 -1 -1 -1 -1 -1 -1 -1 0 1 -1 -1 1 -1 -1 -1 -1 0 -1 -1 1 0 -1 -1 -1 0 -1 -1 1 -1 -1 1 -1 -1 0 -1
-1 -1 -1 -1 -1 -1 -1 -1 0 1 -1 -1 1 -1 -1 2 -1 0 -1 -1 1 0 -1 -1 -1 0 -1 -1 1 -1 -1 1 -1 -1 0 -1
-1 -1 -1 -1 -1 -1 -1 -1 0 1 -1 -1 1 -1 -1 2 -1 0 -1 2 1 0 -1 -1 -1 0 -1 -1 1 -1 -1 1 -1 -1 0 -1
-1 -1 -1 -1 -1 -1 -1 -1 0 1 -1 -1 1 -1 -1 2 -1 0 -1 2 1 0 -1 -1 -1 0 -1 -1 1 -1 -1 1 2 -1 0 -1
2 -1 -1 -1 -1 -1 -1 -1 0 1 -1 -1 1 -1 -1 2 -1 0 -1 2 1 0 -1 -1 -1 0 -1 -1 1 -1 -1 1 2 -1 0 -1
2 -1 -1 -1 -1 -1 -1 -1 0 1 -1 2 1 -1 -1 2 -1 0 -1 2 1 0 -1 -1 -1 0 -1 -1 1 -1 -1 1 2 -1 0 -1
2 -1 -1 -1 -1 -1 -1 -1 0 1 -1 2 1 -1 3 2 -1 0 -1 2 1 0 -1 -1 -1 0 -1 -1 1 -1 -1 1 2 -1 0 -1
2 -1 -1 -1 -1 -1 -1 -1 0 1 -1 2 1 -1 3 2 -1 0 -1 2 1 0 3 -1 -1 0 -1 -1 1 -1 -1 1 2 -1 0 -1
2 -1 -1 -1 -1 -1 -1 -1 0 1 -1 2 1 -1 3 2 -1 0 -1 2 1 0 3 -1 -1 0 -1 -1 1 -1 3 1 2 -1 0 -1
2 -1 -1 3 -1 -1 -1 -1 0 1 -1 2 1 -1 3 2 -1 0 -1 2 1 0 3 -1 -1 0 -1 -1 1 -1 3 1 2 -1 0 -1
2 -1 -1 3 -1 -1 -1 -1 0 1 -1 2 1 -1 3 2 -1 0 -1 2 1 0 3 -1 -1 0 4 -1 1 -1 3 1 2 -1 0 -1
2 -1 -1 3 -1 -1 -1 -1 0 1 -1 2 1 4 3 2 -1 0 -1 2 1 0 3 -1 -1 0 4 -1 1 -1 3 1 2 -1 0 -1
2 -1 -1 3 -1 -1 -1 -1 0 1 4 2 1 4 3 2 -1 0 -1 2 1 0 3 -1 -1 0 4 -1 1 -1 3 1 2 -1 0 -1
2 -1 -1 3 -1 -1 -1 -1 0 1 4 2 1 4 3 2 -1 0 -1 2 1 0 3 -1 -1 0 4 -1 1 -1 3 1 2 -1 0 4
2 -1 -1 3 -1 -1 -1 -1 0 1 4 2 1 4 3 2 -1 0 -1 2 1 0 3 -1 -1 0 4 5 1 -1 3 1 2 -1 0 4
2 -1 -1 3 -1 -1 -1 -1 0 1 4 2 1 4 3 2 5 0 -1 2 1 0 3 -1 -1 0 4 5 1 -1 3 1 2 -1 0 4
2 -1 -1 3 -1 -1 -1 5 0 1 4 2 1 4 3 2 5 0 -1 2 1 0 3 -1 -1 0 4 5 1 -1 3 1 2 -1 0 4
2 -1 -1 3 -1 -1 -1 5 0 1 4 2 1 4 3 2 5 0 5 2 1 0 3 -1 -1 0 4 5 1 -1 3 1 2 -1 0 4
2 -1 -1 3 -1 5 -1 5 0 1 4 2 1 4 3 2 5 0 5 2 1 0 3 -1 -1 0 4 5 1 -1 3 1 2 -1 0 4
2 -1 -1 3 -1 5 -1 5 0 1 4 2 1 4 3 2 5 0 5 2 1 0 3 -1 -1 0 4 5 1 6 3 1 2 -1 0 4
2 -1 -1 3 -1 5 -1 5 0 1 4 2 1 4 3 2 5 0 5 2 1 0 3 -1 -1 0 4 5 1 6 3 1 2 6 0 4
2 -1 -1 3 -1 5 6 5 0 1 4 2 1 4 3 2 5 0 5 2 1 0 3 -1 -1 0 4 5 1 6 3 1 2 6 0 4
2 -1 -1 3 6 5 6 5 0 1 4 2 1 4 3 2 5 0 5 2 1 0 3 -1 -1 0 4 5 1 6 3 1 2 6 0 4
2 -1 -1 3 6 5 6 5 0 1 4 2 1 4 3 2 5 0 5 2 1 0 3 -1 7 0 4 5 1 6 3 1 2 6 0 4
2 -1 -1 3 6 5 6 5 0 1 4 2 1 4 3 2 5 0 5 2 1 0 3 7 7 0 4 5 1 6 3 1 2 6 0 4
2 7 -1 3 6 5 6 5 0 1 4 2 1 4 3 2 5 0 5 2 1 0 3 7 7 0 4 5 1 6 3 1 2 6 0 4
2 7 8 3 6 5 6 5 0 1 4 2 1 4 3 2 5 0 5 2 1 0 3 7 7 0 4 5 1 6 3 1 2 6 0 4
